521.46,72.2,82.46
550.72,68.37,78.08
527.44,71.39,81.53
585.18,64.34,73.48
611.34,61.59,70.34
605.01,62.23,71.08
520.51,72.34,82.61
520.53,72.33,82.61
545.66,69.0,78.81
513.97,73.26,83.67
521.88,72.15,82.4
632.22,59.56,68.02
562.43,66.94,76.46
615.04,61.22,69.92
658.95,57.14,65.26
591.19,63.69,72.74
528.12,71.29,81.42
554.38,67.92,77.57
584.1,64.46,73.62
608.53,61.87,70.67
